p tw 56 756
1 2
1 13
1 24
1 35
1 46
1 53
1 54
1 55
1 56
1 3
1 4
1 5
1 6
1 7
1 8
1 9
1 10
1 11
1 12
1 14
1 15
1 22
1 23
1 25
1 26
1 27
1 28
2 13
2 24
2 35
2 46
2 53
2 54
2 55
2 56
2 3
2 4
2 5
2 6
2 7
2 8
2 9
2 16
2 17
2 18
2 19
2 20
2 22
2 29
2 30
2 31
2 32
2 33
13 24
13 35
13 46
13 53
13 54
13 55
13 56
13 3
13 4
13 5
13 10
13 11
13 12
13 14
13 16
13 17
13 18
13 19
13 21
13 23
13 29
13 34
13 36
13 37
13 38
24 35
24 46
24 53
24 54
24 55
24 56
24 6
24 7
24 8
24 10
24 11
24 12
24 15
24 16
24 17
24 18
24 20
24 21
24 25
24 30
24 34
24 39
24 40
24 41
35 46
35 53
35 54
35 3
35 4
35 6
35 7
35 9
35 10
35 11
35 14
35 15
35 16
35 17
35 19
35 20
35 21
35 26
35 31
35 36
35 39
35 42
35 43
46 53
46 55
46 3
46 5
46 6
46 8
46 9
46 10
46 12
46 14
46 15
46 16
46 18
46 19
46 20
46 21
46 27
46 32
46 37
46 40
46 42
46 44
53 56
53 4
53 5
53 7
53 8
53 9
53 11
53 12
53 14
53 15
53 17
53 18
53 19
53 20
53 21
53 28
53 33
53 38
53 41
53 43
53 44
54 55
54 56
54 3
54 4
54 6
54 7
54 10
54 11
54 16
54 17
54 22
54 23
54 25
54 26
54 29
54 30
54 31
54 34
54 36
54 39
54 45
54 47
55 56
55 3
55 5
55 6
55 8
55 10
55 12
55 16
55 18
55 22
55 23
55 25
55 27
55 29
55 30
55 32
55 34
55 37
55 40
55 45
55 48
56 4
56 5
56 7
56 8
56 11
56 12
56 17
56 18
56 22
56 23
56 25
56 28
56 29
56 30
56 33
56 34
56 38
56 41
56 47
56 48
3 4
3 5
3 6
3 9
3 10
3 14
3 16
3 19
3 22
3 23
3 26
3 27
3 29
3 31
3 32
3 36
3 37
3 42
3 45
3 49
4 5
4 7
4 9
4 11
4 14
4 17
4 19
4 22
4 23
4 26
4 28
4 29
4 31
4 33
4 36
4 38
4 43
4 47
4 49
5 8
5 9
5 12
5 14
5 18
5 19
5 22
5 23
5 27
5 28
5 29
5 32
5 33
5 37
5 38
5 44
5 48
5 49
6 7
6 8
6 9
6 10
6 15
6 16
6 20
6 22
6 25
6 26
6 27
6 30
6 31
6 32
6 39
6 40
6 42
6 45
6 50
7 8
7 9
7 11
7 15
7 17
7 20
7 22
7 25
7 26
7 28
7 30
7 31
7 33
7 39
7 41
7 43
7 47
7 50
8 9
8 12
8 15
8 18
8 20
8 22
8 25
8 27
8 28
8 30
8 32
8 33
8 40
8 41
8 44
8 48
8 50
9 14
9 15
9 19
9 20
9 22
9 26
9 27
9 28
9 31
9 32
9 33
9 42
9 43
9 44
9 49
9 50
10 11
10 12
10 14
10 15
10 16
10 21
10 23
10 25
10 26
10 27
10 34
10 36
10 37
10 39
10 40
10 42
10 45
10 51
11 12
11 14
11 15
11 17
11 21
11 23
11 25
11 26
11 28
11 34
11 36
11 38
11 39
11 41
11 43
11 47
11 51
12 14
12 15
12 18
12 21
12 23
12 25
12 27
12 28
12 34
12 37
12 38
12 40
12 41
12 44
12 48
12 51
14 15
14 19
14 21
14 23
14 26
14 27
14 28
14 36
14 37
14 38
14 42
14 43
14 44
14 49
14 51
15 20
15 21
15 25
15 26
15 27
15 28
15 39
15 40
15 41
15 42
15 43
15 44
15 50
15 51
16 17
16 18
16 19
16 20
16 21
16 29
16 30
16 31
16 32
16 34
16 36
16 37
16 39
16 40
16 42
16 45
16 52
17 18
17 19
17 20
17 21
17 29
17 30
17 31
17 33
17 34
17 36
17 38
17 39
17 41
17 43
17 47
17 52
18 19
18 20
18 21
18 29
18 30
18 32
18 33
18 34
18 37
18 38
18 40
18 41
18 44
18 48
18 52
19 20
19 21
19 29
19 31
19 32
19 33
19 36
19 37
19 38
19 42
19 43
19 44
19 49
19 52
20 21
20 30
20 31
20 32
20 33
20 39
20 40
20 41
20 42
20 43
20 44
20 50
20 52
21 34
21 36
21 37
21 38
21 39
21 40
21 41
21 42
21 43
21 44
21 51
21 52
22 23
22 25
22 26
22 27
22 28
22 29
22 30
22 31
22 32
22 33
22 45
22 47
22 48
22 49
22 50
23 25
23 26
23 27
23 28
23 29
23 34
23 36
23 37
23 38
23 45
23 47
23 48
23 49
23 51
25 26
25 27
25 28
25 30
25 34
25 39
25 40
25 41
25 45
25 47
25 48
25 50
25 51
26 27
26 28
26 31
26 36
26 39
26 42
26 43
26 45
26 47
26 49
26 50
26 51
27 28
27 32
27 37
27 40
27 42
27 44
27 45
27 48
27 49
27 50
27 51
28 33
28 38
28 41
28 43
28 44
28 47
28 48
28 49
28 50
28 51
29 30
29 31
29 32
29 33
29 34
29 36
29 37
29 38
29 45
29 47
29 48
29 49
29 52
30 31
30 32
30 33
30 34
30 39
30 40
30 41
30 45
30 47
30 48
30 50
30 52
31 32
31 33
31 36
31 39
31 42
31 43
31 45
31 47
31 49
31 50
31 52
32 33
32 37
32 40
32 42
32 44
32 45
32 48
32 49
32 50
32 52
33 38
33 41
33 43
33 44
33 47
33 48
33 49
33 50
33 52
34 36
34 37
34 38
34 39
34 40
34 41
34 45
34 47
34 48
34 51
34 52
36 37
36 38
36 39
36 42
36 43
36 45
36 47
36 49
36 51
36 52
37 38
37 40
37 42
37 44
37 45
37 48
37 49
37 51
37 52
38 41
38 43
38 44
38 47
38 48
38 49
38 51
38 52
39 40
39 41
39 42
39 43
39 45
39 47
39 50
39 51
39 52
40 41
40 42
40 44
40 45
40 48
40 50
40 51
40 52
41 43
41 44
41 47
41 48
41 50
41 51
41 52
42 43
42 44
42 45
42 49
42 50
42 51
42 52
43 44
43 47
43 49
43 50
43 51
43 52
44 48
44 49
44 50
44 51
44 52
45 47
45 48
45 49
45 50
45 51
45 52
47 48
47 49
47 50
47 51
47 52
48 49
48 50
48 51
48 52
49 50
49 51
49 52
50 51
50 52
51 52
